PROBLEM NAME: eil51_n8
KNAPSACK DATA TYPE: uncorrelated
DIMENSION: 8
NUMBER OF ITEMS: 7
CAPACITY OF KNAPSACK: 1918
MIN SPEED: 0.1
MAX SPEED: 1
RENTING RATIO: 5.80
EDGE_WEIGHT_TYPE: CEIL_2D
NODE_COORD_SECTION	(INDEX, X, Y):
1	52	64
2	57	58
3	16	57
4	27	68
5	58	48
6	10	17
7	39	10
8	48	28
ITEMS SECTION	(INDEX, PROFIT, WEIGHT, ASSIGNED NODE NUMBER):
1	928	539	4
2	790	280	3
3	773	586	6
4	682	337	7
5	652	486	8
6	488	354	5
7	111	936	2
